peakDumbCharging = 7400; 
Machine = anon_enum(16); 
machineSpeed = [3700,3700,3700,3700,3700,3700,3700,3700,3700,3700,3700,3700,3700,3700,3700,3700]; 
machineLoad = [3700,3700,3700,3700,3700,3700,3700,3700,3700,3700,3700,3700,3700,3700,3700,3700]; 
Car = anon_enum(8); 
demandCar = [8080,7760,7680,22840,3840,8120,8400,11840]; 
arrivalCar = [71,69,64,60,59,53,51,42]; 
departureCar = [75,74,67,71,66,61,55,46]; 
